
Gurobi 7.0.2 (win64, Python) logging started 06/09/18 15:29:51


Gurobi 7.0.2 (win64, Python) logging started 06/11/18 11:04:10


Gurobi 7.0.2 (win64, Python) logging started 06/11/18 17:01:01


Gurobi 7.0.2 (win64, Python) logging started 06/12/18 08:02:19


Gurobi 7.0.2 (win64, Python) logging started 06/12/18 13:35:44


Gurobi 7.0.2 (win64, Python) logging started 06/13/18 23:42:30


Gurobi 7.0.2 (win64, Python) logging started 06/14/18 01:38:20


Gurobi 7.0.2 (win64, Python) logging started 06/14/18 10:33:59


Gurobi 7.0.2 (win64, Python) logging started 06/14/18 21:33:49


Gurobi 7.0.2 (win64, Python) logging started 06/16/18 11:13:30


Gurobi 8.0.0 (win64, Python) logging started 06/18/18 14:38:21


Gurobi 8.0.0 (win64, Python) logging started 06/18/18 14:42:16

Academic license - for non-commercial use only
Freed default Gurobi environment

Gurobi 7.0.2 (win64, Python) logging started 06/20/18 15:53:42

